data;
param n:=100;
param w:=1 385 2 -425 3 -37 4 117 5 -6 6 -401 7 157 8 439 9 -338 10 418 11 -296 12 33 13 -104 14 -154 15 117 16 -8 17 245 18 309 19 -465 20 -134 21 -168 22 17 23 -24 24 35 25 391 26 348 27 39 28 241 29 233 30 -258 31 -55 32 -281 33 216 34 -215 35 309 36 144 37 275 38 -295 39 -371 40 2 41 429 42 395 43 333 44 -399 45 -260 46 -298 47 50 48 139 49 28 50 443 51 443 52 165 53 -29 54 397 55 304 56 99 57 157 58 -22 59 -310 60 34 61 -63 62 -442 63 -178 64 -177 65 -98 66 67 67 -66 68 -363 69 303 70 -204 71 165 72 202 73 240 74 418 75 397 76 -416 77 -215 78 197 79 -373 80 -494 81 211 82 -297 83 -397 84 -431 85 155 86 -508 87 -267 88 -387 89 -20 90 466 91 43 92 -10 93 255 94 -314 95 358 96 -424 97 327 98 -211 99 -123 100 141;
